sat
(:eliminated-applications 2
 :eliminated-vars         1
 :max-memory              18.10
 :memory                  17.99
 :nlsat-propagations      5
 :nlsat-stages            3
 :num-allocs              8510
 :rlimit-count            7872
 :time                    0.00
 :total-time              0.02)
